PatchBench/BenchmarksExist/qemu/CWE-190-Integer-Overflow-or-Wraparound/CVE_2014_0143_e3737b820b45e54b059656dc3f914f895ac7a88b/cve2/cveSnippetExist32.smt2
; benchmark generated from python API
(set-info :status unknown)
(declare-fun rsi () (_ BitVec 64))
(declare-fun rdi () (_ BitVec 64))
(declare-fun rdx () (_ BitVec 64))
(assert
 (let (($x65 (not (= ((_ extract 31 0) rsi) (_ bv0 32)))))
 (let ((?x22 ((_ extract 31 0) rdi)))
 (let ((?x50 (concat (_ bv0 32) ?x22)))
 (let ((?x9 ((_ extract 31 0) rsi)))
 (let ((?x58 (concat (_ bv0 96) ?x9)))
 (let ((?x18 (concat (bvashr rdx (_ bv63 64)) rdx)))
 (let ((?x60 ((_ extract 63 0) (bvsdiv_i ?x18 ?x58))))
 (let (($x61 (bvsle ?x60 ?x50)))
 (and $x61 $x65))))))))))
(check-sat)
